Geometry = GenFormat {
  <<< graphene.gen
}

Driver = ConjugateGradient {
    LatticeOpt = Yes
    Isotropic = Yes
    MaxForceComponent = 1e-5
}


Hamiltonian = DFTB {
  SCC = No
  MaxAngularMomentum = {
    C = "p"
  }
  Filling = Fermi {
    Temperature [Kelvin] = 100
  }
  SlaterKosterFiles = Type2FileNames {
    Prefix = "../../../matsci-0-3/"
    Separator = "-"
    Suffix = ".skf"
  }
  KPointsAndWeights = SuperCellFolding {
    48 0 0
    0 48 0
    0 0 1
    0.5 0.5 0.0
  }
}
